JulietBench/Juliet_Based_Patch_Bench/linux/CWE-190-Integer-Overflow-or-Wraparound/CVE_2018_13406_9f645bcc566a1e9f921bdae7528a01ced5bc3713/solveruvesafb_setcmap_Snippet_patch1.smt2
; benchmark generated from python API
(set-info :status unknown)
(declare-fun rsi () (_ BitVec 64))
(declare-fun rdi () (_ BitVec 64))
(declare-fun R () (_ BitVec 32))
(assert
 (let ((?x11 ((_ extract 31 0) rsi)))
 (let ((?x6 ((_ extract 31 0) rdi)))
 (let ((?x14 (bvmul ?x6 ?x11)))
 (let (($x46 (= R ?x14)))
 (let (($x18 (= (_ bv0 64) rdi)))
 (let (($x39 (and $x18 $x46)))
 (let (($x38 (and (distinct (_ bv0 64) rdi) true)))
 (let ((?x56 (bvmul rsi rdi)))
 (let ((?x58 (bvashr ?x56 (_ bv64 64))))
 (let (($x298 (= (_ bv0 64) ?x58)))
 (let (($x43 (and $x298 $x38 $x46)))
 (let (($x42 (= (_ bv0 32) R)))
 (let (($x60 (and (distinct (_ bv0 64) ?x58) true)))
 (let (($x41 (and $x60 $x38 $x42)))
 (let (($x526 (or $x41 $x43 $x39)))
 (let (($x603 (not $x526)))
 (let (($x688 (and (distinct R ?x14) true)))
 (let (($x882 (and $x688 $x603)))
 (let (($x457 (and $x46 $x526)))
 (let (($x781 (or $x457 $x882)))
 (not $x781))))))))))))))))))))))
(check-sat)
